NAME : n80w160.005.439.tour
COMMENT : Length = 439
COMMENT : Found by LKH [Keld Helsgaun] Tue May  2 05:19:07 2017
TYPE : TOUR
DIMENSION : 81
TOUR_SECTION
1
53
44
4
73
65
76
13
64
21
10
69
14
9
54
47
29
80
36
71
43
77
17
27
15
67
59
35
40
50
75
37
38
57
55
20
23
46
70
12
18
26
41
8
3
5
39
28
30
31
19
49
66
6
48
56
42
24
79
2
51
22
72
62
74
68
58
33
78
25
52
61
11
34
45
63
60
7
16
32
81
-1
EOF
